HOST26/HOST26_Code/minizinc/tc9_phase1.dzn
% Auto-generated tc9 Phase 1 data for MiniZinc
n_components = 8;
n_security = 3;
n_logging = 3;
n_groups = 1;
max_group_size = 5;
mu = 25;
omega = 1000;
component_name = ["c1", "c2", "c3", "c4", "c5", "c6", "c7", "c8"];
security_name = ["zero_trust", "mac", "dynamic_mac"];
logging_name = ["zero_trust_logger", "some_logging", "no_logging"];
impact_read = [1, 5, 3, 3, 4, 5, 1, 2];
impact_write = [5, 2, 3, 4, 1, 3, 2, 4];
allowable_latency_read = [10, 1000, 7, 22, 25, 22, 1000, 5];
allowable_latency_write = [1000, 10, 22, 7, 22, 25, 1000, 15];
component_group = [1, 1, 1, 1, 1, 0, 0, 0];
vulnerability = [10, 30, 20];
security_latency = [7, 3, 7];
logging_score = [5, 10, 20];
logging_latency = [22, 4, 0];
sec_luts_asset = [51, 51, 51];
sec_luts_component = [234, 234, 234];
sec_luts_base_once = [1985, 0, 1985];
sec_luts_base_per_use = [0, 0, 0];
log_luts_base_once = [31354, 0, 0];
log_luts_base_per_use = [0, 3135, 0];
sec_ffs_asset = [32, 32, 32];
sec_ffs_component = [292, 292, 292];
sec_ffs_base_once = [0, 0, 0];
sec_ffs_base_per_use = [1612, 0, 1612];
log_ffs_base_once = [0, 0, 0];
log_ffs_base_per_use = [25020, 2502, 0];
sec_dsps_asset = [0, 0, 0];
sec_dsps_component = [0, 0, 0];
sec_dsps_base_once = [0, 0, 0];
sec_dsps_base_per_use = [0, 0, 0];
log_dsps_base_once = [0, 0, 0];
log_dsps_base_per_use = [220, 22, 0];
sec_lutram_asset = [0, 0, 0];
sec_lutram_component = [0, 0, 0];
sec_lutram_base_once = [0, 0, 0];
sec_lutram_base_per_use = [201, 0, 201];
log_lutram_base_once = [0, 0, 0];
log_lutram_base_per_use = [154, 2, 0];
sec_bufg_asset = [0, 0, 0];
sec_bufg_component = [0, 0, 0];
sec_bufg_base_once = [0, 0, 0];
sec_bufg_base_per_use = [0, 0, 0];
log_bufg_base_once = [0, 0, 0];
log_bufg_base_per_use = [0, 0, 0];
sec_bram_asset = [0, 0, 0];
sec_bram_component = [0, 0, 0];
sec_bram_base_once = [0, 0, 0];
sec_bram_base_per_use = [8, 0, 8];
log_bram_base_once = [0, 0, 0];
log_bram_base_per_use = [18, 2, 0];
sec_power_asset = [1, 1, 1];
sec_power_component = [2, 2, 2];
sec_power_base_once = [0, 0, 0];
sec_power_base_per_use = [2, 0, 2];
log_power_base_once = [0, 0, 0];
log_power_base_per_use = [717, 72, 0];
group_size = [5];
group_member = array2d(1..1, 1..5, [1, 2, 3, 4, 5]);
max_power = 15000;
max_luts = 53200;
max_ffs = 106400;
max_dsps = 220;
max_lutram = 17400;
max_bufg = 32;
max_bram = 140;
max_asset_risk = 500;
